100
128
28
20
12
6
11
10
30
4
18
4
4
29
4
6
22
20
3
13
25
2
13
12
9
19
23
23
22
18
2
6
9
16
7
13
4
9
19
10
29
30
20
9
27
5
18
14
16
6
1
11
27
17
2
46
2
36
28
18
1
8
18
14
5
7
36
12
27
8
30
2
2
30
14
16
58
3
37
41
13
38
29
39
47
40
44
63
61
52
47
17
31
59
29
31
34
27
3
30
64
6